32      10      
20      15      17      17      20      17      18      19      20      14      
0       0       0       0       0       0       0       0       0       0       0       11      2       3       4       5       7       8       9       12      13      14      17      
8       8       9       11      12      1       3       1       1       1       1       5       31      26      19      15      6       
7       1       9       16      2       1       1       1       1       1       1       5       25      18      16      15      11      
1       6       12      1       16      6       1       1       1       1       5       3       18      15      10      
8       4       10      17      3       1       1       1       1       2       1       3       23      16      15      
6       1       15      17      11      1       1       8       1       1       1       3       25      22      21      
1       2       15      6       16      2       1       6       1       1       1       2       23      15      
1       1       7       12      4       6       1       1       1       1       1       2       23      15      
6       1       4       10      5       8       1       1       2       1       1       2       24      15      
1       1       13      12      13      1       1       1       9       1       1       4       30      28      25      24      
3       4       15      17      1       1       1       1       3       1       1       3       30      24      20      
5       1       10      17      9       1       1       1       2       1       1       3       30      24      20      
2       7       9       15      9       2       1       4       2       6       3       4       30      29      27      26      
3       1       8       2       7       1       3       1       2       1       1       3       30      28      23      
10      4       1       17      5       1       1       1       1       5       1       2       30      20      
7       1       3       17      9       1       7       1       1       7       1       3       29      27      26      
1       6       10      13      15      1       1       1       5       1       1       3       30      28      25      
10      5       10      17      12      1       1       1       1       8       1       2       28      23      
3       20      4       9       4       1       3       1       1       1       1       1       20      
3       7       10      8       1       1       1       1       4       1       1       3       29      28      27      
1       2       1       17      17      1       1       2       1       1       4       3       30      28      27      
8       1       8       17      1       1       1       1       1       1       1       1       23      
1       1       5       5       1       6       1       1       1       1       1       1       24      
1       1       13      17      7       1       1       1       1       1       1       1       27      
1       4       11      7       1       1       6       1       1       1       1       1       29      
5       20      3       17      5       1       1       1       1       1       1       1       28      
1       1       2       10      1       1       1       1       1       1       4       1       32      
7       1       5       14      1       1       5       4       1       1       1       1       32      
3       6       12      17      6       1       1       6       4       1       1       1       32      
6       1       15      5       8       7       1       1       1       8       1       1       32      
10      1       3       12      7       1       1       1       4       1       1       1       32      
0       0       0       0       0       0       0       0       0       0       0       0       
